benchmarks/bfuzz0/22882094511728289581431011312710414439.smt2
(set-logic QF_FP)
(declare-const x0 (_ FloatingPoint 11 53))
(declare-const x1 (_ FloatingPoint 11 53))
(declare-const x2 (_ FloatingPoint 11 53))
(declare-const x3 (_ FloatingPoint 11 53))
(declare-const x4 (_ FloatingPoint 11 53))
(declare-const x5 (_ FloatingPoint 11 53))
(declare-const x6 (_ FloatingPoint 11 53))
(declare-const x7 (_ FloatingPoint 11 53))
(declare-const x8 (_ FloatingPoint 11 53))
(declare-const x9 (_ FloatingPoint 11 53))
(declare-const x10 (_ FloatingPoint 11 53))
(declare-const x11 (_ FloatingPoint 11 53))
(declare-const x12 (_ FloatingPoint 11 53))
(declare-const x13 (_ FloatingPoint 11 53))
(declare-const x14 (_ FloatingPoint 11 53))
(assert (fp.gt (fp.add RNE (fp.add RNE (fp.add RNE x14 x1) (fp.mul RNE x12 x14)) (fp.mul RNE (fp.sub RNE x9 x1) (fp.add RNE x1 x5))) (fp.div RNE (fp.neg (fp.sub RNE x6 x14)) (fp.div RNE (fp.sub RNE x10 x4) (fp.neg x7)))))
(check-sat)
