db/data/22882094511728289581431011312710414439.z3.out
-------------------
2500.087246679
